20
0 1 1 2 3 3 3 2 4 1 2 5 5 2 3 4 6 2 7 4 6 1 8 9 4 10 4 11 6 8 5 5 8 7 7 9 9 3 2 10 11 1 9 12 10 7 6 11 13 14 12 12 14 12 15 13 1 10 12 16 15 11 11 14 13 15 16 3 12 15 6 17 13 17 9 8 10 4 16 8 17 14 17 18 6 14 19 5 1 16 5 13 19 0 15 18 15 8 6 17 
